p edge 540 1296
e 1 32
e 1 157
e 1 359
e 2 20
e 2 165
e 2 401
e 3 268
e 3 457
e 3 517
e 4 62
e 4 401
e 4 430
e 5 132
e 5 160
e 5 294
e 6 166
e 6 179
e 6 475
e 7 92
e 7 170
e 7 247
e 8 19
e 8 24
e 8 40
e 8 46
e 8 47
e 8 50
e 8 243
e 8 244
e 8 256
e 8 302
e 8 399
e 8 539
e 9 61
e 9 334
e 9 497
e 10 64
e 10 191
e 10 530
e 11 55
e 11 58
e 11 59
e 11 74
e 11 139
e 11 254
e 11 351
e 11 369
e 11 380
e 11 402
e 11 408
e 11 436
e 12 13
e 12 138
e 12 182
e 12 274
e 12 296
e 12 299
e 12 301
e 12 310
e 12 314
e 12 380
e 12 431
e 12 515
e 13 25
e 13 105
e 14 146
e 14 251
e 14 355
e 15 33
e 15 68
e 15 70
e 15 328
e 15 367
e 15 387
e 15 392
e 15 467
e 15 483
e 15 504
e 15 525
e 15 534
e 16 208
e 16 312
e 16 329
e 17 104
e 17 145
e 17 158
e 17 159
e 17 195
e 17 204
e 17 227
e 17 231
e 17 306
e 17 324
e 17 485
e 17 531
e 18 44
e 18 51
e 18 457
e 19 32
e 19 77
e 20 56
e 20 96
e 20 107
e 20 173
e 20 229
e 20 272
e 20 343
e 20 371
e 20 472
e 20 506
e 20 533
e 21 48
e 21 323
e 21 410
e 22 25
e 22 280
e 22 282
e 23 51
e 23 277
e 23 517
e 24 212
e 24 337
e 25 95
e 25 106
e 25 172
e 25 225
e 25 244
e 25 249
e 25 289
e 25 302
e 25 369
e 25 403
e 26 167
e 26 421
e 26 517
e 27 73
e 27 219
e 27 361
e 28 53
e 28 61
e 28 255
e 29 64
e 29 294
e 29 432
e 30 105
e 30 124
e 30 325
e 31 44
e 31 219
e 31 365
e 32 123
e 32 273
e 32 284
e 32 288
e 32 316
e 32 321
e 32 392
e 32 409
e 32 492
e 32 524
e 33 171
e 33 337
e 34 108
e 34 255
e 34 517
e 35 91
e 35 106
e 35 158
e 35 239
e 35 304
e 35 353
e 35 371
e 35 400
e 35 416
e 35 466
e 35 482
e 35 486
e 36 142
e 36 317
e 36 530
e 37 121
e 37 317
e 37 372
e 38 90
e 38 137
e 38 256
e 38 258
e 38 287
e 38 336
e 38 348
e 38 404
e 38 433
e 38 449
e 38 471
e 38 494
e 39 206
e 39 312
e 39 323
e 40 184
e 40 280
e 41 282
e 41 285
e 41 344
e 42 92
e 42 344
e 42 491
e 43 170
e 43 294
e 43 347
e 44 45
e 44 221
e 44 289
e 44 333
e 44 341
e 44 374
e 44 378
e 44 408
e 44 414
e 44 425
e 45 135
e 45 421
e 46 344
e 46 373
e 47 92
e 47 184
e 48 88
e 48 94
e 48 99
e 48 270
e 48 321
e 48 356
e 48 429
e 48 436
e 48 439
e 48 518
e 48 520
e 49 146
e 49 167
e 49 294
e 50 363
e 50 366
e 51 70
e 51 80
e 51 126
e 51 131
e 51 176
e 51 186
e 51 209
e 51 259
e 51 314
e 51 376
e 52 268
e 52 312
e 52 366
e 53 54
e 53 110
e 53 117
e 53 156
e 53 195
e 53 229
e 53 238
e 53 398
e 53 486
e 53 500
e 53 507
e 54 220
e 54 475
e 55 347
e 55 421
e 56 178
e 56 358
e 57 73
e 57 191
e 57 285
e 58 146
e 58 365
e 59 179
e 59 366
e 60 166
e 60 185
e 60 372
e 61 67
e 61 218
e 61 271
e 61 377
e 61 384
e 61 395
e 61 418
e 61 501
e 61 518
e 61 523
e 62 79
e 62 89
e 62 112
e 62 114
e 62 140
e 62 241
e 62 254
e 62 406
e 62 449
e 62 505
e 62 540
e 63 86
e 63 192
e 63 372
e 64 71
e 64 143
e 64 204
e 64 249
e 64 253
e 64 394
e 64 407
e 64 472
e 64 498
e 64 507
e 65 125
e 65 183
e 65 225
e 65 238
e 65 293
e 65 442
e 65 468
e 65 479
e 65 513
e 65 519
e 65 526
e 65 539
e 66 132
e 66 355
e 66 375
e 67 178
e 67 323
e 68 360
e 68 372
e 69 71
e 69 87
e 69 93
e 69 133
e 69 154
e 69 281
e 69 388
e 69 419
e 69 469
e 69 482
e 69 509
e 69 534
e 70 529
e 71 192
e 72 178
e 72 220
e 72 283
e 73 139
e 73 231
e 73 371
e 73 439
e 73 463
e 73 467
e 73 477
e 73 479
e 73 498
e 73 532
e 74 337
e 74 490
e 75 142
e 75 325
e 75 375
e 76 142
e 76 178
e 76 219
e 77 128
e 77 152
e 77 169
e 77 174
e 77 214
e 77 299
e 77 328
e 77 378
e 77 397
e 77 451
e 77 463
e 78 166
e 78 460
e 78 490
e 79 318
e 79 363
e 80 337
e 80 361
e 81 166
e 81 338
e 81 430
e 82 220
e 82 401
e 82 432
e 83 103
e 83 160
e 83 347
e 84 167
e 84 247
e 84 285
e 85 153
e 85 212
e 85 401
e 86 95
e 86 117
e 86 133
e 86 144
e 86 198
e 86 231
e 86 245
e 86 272
e 86 286
e 86 295
e 86 503
e 87 237
e 87 359
e 88 206
e 88 247
e 89 317
e 89 460
e 90 185
e 90 382
e 91 191
e 91 372
e 92 134
e 92 147
e 92 201
e 92 222
e 92 230
e 92 403
e 92 435
e 92 500
e 92 532
e 93 132
e 93 200
e 94 339
e 94 464
e 95 358
e 96 200
e 96 318
e 97 171
e 97 444
e 97 457
e 98 206
e 98 235
e 98 421
e 99 208
e 99 235
e 100 179
e 100 280
e 100 401
e 101 165
e 101 285
e 101 360
e 102 167
e 102 334
e 102 382
e 103 138
e 103 177
e 103 207
e 103 266
e 103 295
e 103 333
e 103 400
e 103 411
e 103 458
e 103 495
e 103 507
e 104 432
e 104 460
e 105 114
e 105 127
e 105 221
e 105 315
e 105 390
e 105 439
e 105 440
e 105 448
e 105 508
e 105 516
e 106 200
e 107 277
e 107 358
e 108 180
e 108 228
e 108 267
e 108 274
e 108 309
e 108 349
e 108 381
e 108 393
e 108 425
e 108 447
e 108 525
e 109 220
e 109 312
e 109 358
e 110 208
e 110 318
e 111 339
e 111 490
e 111 529
e 112 280
e 112 460
e 113 153
e 113 178
e 113 208
e 114 337
e 115 121
e 115 189
e 115 375
e 116 165
e 116 208
e 116 277
e 117 242
e 118 179
e 118 430
e 118 475
e 119 157
e 119 166
e 119 280
e 120 208
e 120 421
e 120 497
e 121 205
e 121 214
e 121 224
e 121 303
e 121 307
e 121 321
e 121 364
e 121 388
e 121 471
e 121 478
e 122 157
e 122 178
e 122 337
e 123 142
e 123 189
e 124 144
e 124 158
e 124 188
e 124 222
e 124 436
e 124 451
e 124 462
e 124 472
e 124 483
e 124 502
e 124 513
e 125 165
e 125 457
e 126 318
e 126 382
e 127 179
e 127 529
e 128 375
e 128 491
e 129 185
e 129 212
e 129 517
e 130 401
e 130 410
e 130 490
e 131 255
e 131 470
e 132 155
e 132 252
e 132 402
e 132 427
e 132 440
e 132 453
e 132 492
e 132 495
e 132 536
e 133 191
e 134 191
e 134 464
e 135 197
e 135 224
e 135 243
e 135 263
e 135 288
e 135 301
e 135 450
e 135 467
e 135 484
e 135 499
e 135 502
e 136 242
e 136 430
e 136 444
e 137 323
e 137 460
e 138 373
e 139 189
e 140 166
e 140 401
e 141 160
e 141 235
e 141 285
e 142 169
e 142 263
e 142 281
e 142 311
e 142 332
e 142 356
e 142 404
e 142 465
e 143 165
e 143 242
e 144 220
e 145 200
e 145 277
e 146 207
e 146 216
e 146 269
e 146 350
e 146 419
e 146 443
e 146 488
e 146 508
e 146 524
e 147 165
e 147 237
e 148 185
e 148 410
e 148 530
e 149 153
e 149 363
e 149 460
e 150 157
e 150 360
e 150 517
e 151 165
e 151 220
e 151 460
e 152 185
e 152 312
e 153 161
e 153 218
e 153 232
e 153 342
e 153 348
e 153 370
e 153 376
e 153 429
e 153 447
e 154 360
e 154 361
e 155 192
e 155 251
e 156 237
e 156 285
e 157 181
e 157 199
e 157 264
e 157 276
e 157 308
e 157 345
e 157 387
e 157 428
e 159 213
e 159 358
e 160 183
e 160 230
e 160 233
e 160 269
e 160 330
e 160 352
e 160 376
e 160 393
e 160 405
e 161 166
e 161 189
e 162 255
e 162 363
e 162 490
e 163 430
e 163 460
e 163 490
e 164 361
e 164 457
e 164 530
e 165 227
e 165 335
e 165 400
e 165 503
e 165 523
e 166 270
e 166 281
e 166 298
e 166 305
e 166 307
e 167 176
e 167 180
e 167 194
e 167 232
e 167 435
e 167 495
e 167 511
e 167 519
e 168 208
e 168 247
e 168 325
e 169 213
e 170 186
e 170 187
e 170 207
e 170 226
e 170 300
e 170 383
e 170 442
e 170 447
e 170 453
e 170 537
e 171 210
e 171 217
e 171 232
e 171 233
e 171 262
e 171 291
e 171 300
e 171 374
e 171 431
e 171 489
e 172 373
e 172 491
e 173 255
e 173 283
e 174 251
e 174 282
e 175 338
e 175 382
e 175 457
e 176 329
e 177 191
e 177 247
e 178 190
e 178 214
e 178 306
e 178 346
e 178 412
e 178 484
e 179 261
e 179 322
e 179 445
e 179 446
e 179 474
e 179 480
e 179 494
e 180 323
e 181 317
e 181 430
e 182 242
e 182 280
e 183 247
e 184 211
e 184 253
e 184 265
e 184 286
e 184 296
e 184 315
e 184 353
e 184 408
e 184 476
e 184 526
e 185 236
e 185 250
e 185 273
e 185 391
e 185 469
e 185 484
e 185 520
e 186 323
e 187 382
e 187 421
e 188 192
e 188 285
e 189 236
e 189 313
e 189 326
e 189 384
e 189 389
e 189 462
e 189 516
e 189 522
e 190 268
e 190 529
e 191 196
e 191 279
e 191 437
e 191 488
e 191 492
e 191 513
e 192 239
e 192 290
e 192 293
e 192 386
e 192 411
e 192 514
e 192 524
e 192 532
e 193 200
e 193 220
e 193 255
e 194 242
e 194 347
e 195 401
e 196 294
e 196 497
e 197 365
e 197 444
e 198 283
e 198 344
e 199 457
e 199 470
e 200 215
e 200 216
e 200 260
e 200 286
e 200 306
e 200 343
e 200 394
e 201 360
e 201 432
e 202 242
e 202 355
e 202 497
e 203 208
e 203 247
e 203 365
e 204 464
e 205 219
e 205 312
e 206 257
e 206 335
e 206 342
e 206 354
e 206 389
e 206 398
e 206 412
e 206 496
e 206 512
e 208 417
e 208 454
e 208 456
e 208 522
e 209 359
e 209 366
e 210 277
e 210 470
e 211 285
e 211 491
e 212 240
e 212 319
e 212 320
e 212 331
e 212 332
e 212 364
e 212 406
e 212 459
e 212 480
e 213 224
e 213 250
e 213 260
e 213 342
e 213 345
e 213 357
e 213 377
e 213 422
e 213 454
e 213 506
e 215 347
e 215 372
e 216 530
e 217 361
e 217 366
e 218 312
e 219 250
e 219 310
e 219 316
e 219 340
e 219 399
e 219 426
e 219 481
e 219 483
e 220 234
e 220 260
e 220 304
e 220 455
e 220 498
e 221 344
e 222 355
e 223 280
e 223 344
e 223 491
e 225 491
e 226 365
e 226 517
e 227 475
e 228 360
e 228 444
e 229 460
e 230 497
e 233 323
e 234 318
e 234 358
e 235 271
e 235 279
e 235 389
e 235 418
e 235 435
e 235 442
e 235 456
e 235 458
e 235 514
e 236 251
e 237 259
e 237 264
e 237 367
e 237 424
e 237 425
e 237 431
e 237 441
e 237 468
e 237 473
e 238 360
e 239 530
e 240 366
e 240 491
e 241 410
e 241 475
e 242 269
e 242 279
e 242 290
e 242 341
e 242 453
e 242 466
e 243 251
e 244 285
e 245 355
e 245 530
e 246 294
e 246 373
e 246 444
e 247 257
e 247 290
e 247 379
e 247 384
e 247 501
e 248 268
e 248 410
e 248 430
e 249 283
e 251 303
e 251 356
e 251 368
e 251 426
e 251 428
e 251 437
e 251 504
e 252 358
e 252 372
e 253 358
e 254 529
e 255 335
e 255 417
e 255 449
e 255 480
e 255 489
e 255 531
e 256 529
e 257 334
e 258 282
e 258 366
e 259 444
e 261 317
e 261 401
e 262 318
e 262 517
e 263 312
e 264 382
e 265 282
e 265 373
e 266 280
e 266 444
e 267 361
e 267 529
e 268 298
e 268 357
e 268 368
e 268 392
e 268 423
e 268 473
e 268 510
e 268 521
e 270 329
e 271 325
e 272 464
e 273 325
e 274 457
e 275 338
e 275 359
e 275 375
e 276 312
e 276 529
e 277 336
e 277 349
e 277 395
e 277 398
e 277 406
e 277 455
e 277 474
e 278 317
e 278 338
e 278 373
e 280 385
e 280 414
e 280 487
e 280 510
e 282 316
e 282 403
e 282 415
e 282 450
e 282 459
e 282 493
e 282 526
e 283 324
e 283 350
e 283 353
e 283 427
e 283 455
e 283 485
e 283 506
e 283 509
e 284 347
e 284 355
e 285 383
e 285 420
e 285 535
e 287 329
e 287 401
e 288 491
e 289 339
e 291 359
e 291 529
e 292 329
e 292 363
e 292 475
e 293 464
e 294 379
e 294 414
e 294 486
e 294 503
e 294 514
e 294 515
e 295 432
e 296 339
e 297 363
e 297 491
e 297 529
e 298 373
e 299 365
e 300 329
e 301 334
e 302 430
e 303 325
e 304 464
e 305 323
e 305 325
e 307 530
e 308 373
e 308 410
e 309 337
e 309 359
e 310 421
e 311 363
e 311 382
e 312 343
e 312 396
e 312 485
e 313 317
e 313 323
e 314 360
e 315 444
e 317 413
e 317 429
e 317 469
e 317 510
e 317 528
e 318 320
e 318 324
e 318 381
e 318 494
e 318 512
e 318 523
e 319 323
e 319 475
e 320 490
e 322 337
e 322 339
e 323 438
e 323 454
e 325 351
e 325 354
e 325 370
e 325 413
e 325 477
e 326 329
e 326 410
e 327 338
e 327 360
e 327 470
e 328 464
e 329 331
e 329 377
e 329 393
e 329 412
e 329 413
e 330 365
e 330 382
e 331 460
e 332 470
e 333 430
e 334 352
e 334 378
e 334 390
e 334 402
e 334 443
e 334 456
e 334 481
e 334 537
e 336 490
e 337 357
e 337 396
e 337 433
e 337 493
e 338 346
e 338 385
e 338 396
e 338 409
e 338 422
e 338 441
e 338 504
e 339 434
e 339 443
e 339 462
e 339 477
e 339 505
e 339 536
e 339 538
e 340 359
e 340 464
e 341 373
e 344 380
e 344 394
e 344 415
e 344 416
e 344 538
e 344 539
e 345 366
e 346 366
e 347 386
e 347 390
e 347 434
e 347 437
e 347 461
e 347 509
e 348 475
e 349 382
e 350 372
e 351 464
e 352 517
e 354 497
e 355 379
e 355 407
e 355 458
e 355 479
e 355 482
e 355 535
e 358 416
e 358 419
e 358 461
e 358 531
e 359 362
e 359 368
e 359 452
e 359 463
e 359 502
e 360 362
e 360 374
e 360 423
e 361 409
e 361 424
e 361 428
e 361 451
e 361 499
e 361 521
e 362 530
e 363 391
e 363 438
e 363 474
e 363 478
e 363 493
e 364 382
e 365 418
e 365 434
e 365 440
e 365 496
e 365 511
e 366 448
e 366 505
e 366 525
e 367 530
e 369 444
e 370 410
e 372 407
e 372 424
e 372 452
e 372 465
e 373 445
e 373 527
e 373 540
e 375 386
e 375 387
e 375 399
e 375 450
e 375 488
e 375 520
e 375 521
e 381 470
e 382 423
e 382 489
e 383 497
e 385 410
e 388 410
e 391 470
e 395 432
e 397 421
e 397 444
e 401 438
e 401 527
e 404 517
e 405 421
e 405 470
e 410 446
e 410 465
e 411 497
e 415 430
e 417 432
e 420 432
e 420 457
e 421 501
e 421 508
e 421 536
e 422 529
e 426 491
e 427 530
e 430 476
e 430 515
e 432 466
e 432 468
e 432 512
e 432 533
e 433 491
e 441 517
e 444 481
e 444 538
e 445 460
e 446 460
e 448 490
e 452 457
e 457 500
e 457 534
e 459 529
e 461 530
e 464 499
e 464 516
e 464 535
e 470 471
e 470 473
e 470 511
e 470 537
e 475 487
e 475 528
e 475 533
e 475 540
e 476 491
e 478 517
e 487 490
e 490 527
e 490 528
e 496 497
e 497 518
e 497 519
e 497 522
